p cnf 80 903
1 0
10 0
-11 -12 0
-11 -13 0
-11 -14 0
-11 -15 0
-11 -16 0
-11 -17 0
-11 -18 0
-11 -19 0
-11 -20 0
-12 -11 0
-12 -13 0
-12 -14 0
-12 -15 0
-12 -16 0
-12 -17 0
-12 -18 0
-12 -19 0
-12 -20 0
-13 -11 0
-13 -12 0
-13 -14 0
-13 -15 0
-13 -16 0
-13 -17 0
-13 -18 0
-13 -19 0
-13 -20 0
-14 -11 0
-14 -12 0
-14 -13 0
-14 -15 0
-14 -16 0
-14 -17 0
-14 -18 0
-14 -19 0
-14 -20 0
-15 -11 0
-15 -12 0
-15 -13 0
-15 -14 0
-15 -16 0
-15 -17 0
-15 -18 0
-15 -19 0
-15 -20 0
-16 -11 0
-16 -12 0
-16 -13 0
-16 -14 0
-16 -15 0
-16 -17 0
-16 -18 0
-16 -19 0
-16 -20 0
-17 -11 0
-17 -12 0
-17 -13 0
-17 -14 0
-17 -15 0
-17 -16 0
-17 -18 0
-17 -19 0
-17 -20 0
-18 -11 0
-18 -12 0
-18 -13 0
-18 -14 0
-18 -15 0
-18 -16 0
-18 -17 0
-18 -19 0
-18 -20 0
-19 -11 0
-19 -12 0
-19 -13 0
-19 -14 0
-19 -15 0
-19 -16 0
-19 -17 0
-19 -18 0
-19 -20 0
-20 -11 0
-20 -12 0
-20 -13 0
-20 -14 0
-20 -15 0
-20 -16 0
-20 -17 0
-20 -18 0
-20 -19 0
-21 -22 0
-21 -23 0
-21 -24 0
-21 -25 0
-21 -26 0
-21 -27 0
-21 -28 0
-21 -29 0
-21 -30 0
-22 -21 0
-22 -23 0
-22 -24 0
-22 -25 0
-22 -26 0
-22 -27 0
-22 -28 0
-22 -29 0
-22 -30 0
-23 -21 0
-23 -22 0
-23 -24 0
-23 -25 0
-23 -26 0
-23 -27 0
-23 -28 0
-23 -29 0
-23 -30 0
-24 -21 0
-24 -22 0
-24 -23 0
-24 -25 0
-24 -26 0
-24 -27 0
-24 -28 0
-24 -29 0
-24 -30 0
-25 -21 0
-25 -22 0
-25 -23 0
-25 -24 0
-25 -26 0
-25 -27 0
-25 -28 0
-25 -29 0
-25 -30 0
-26 -21 0
-26 -22 0
-26 -23 0
-26 -24 0
-26 -25 0
-26 -27 0
-26 -28 0
-26 -29 0
-26 -30 0
-27 -21 0
-27 -22 0
-27 -23 0
-27 -24 0
-27 -25 0
-27 -26 0
-27 -28 0
-27 -29 0
-27 -30 0
-28 -21 0
-28 -22 0
-28 -23 0
-28 -24 0
-28 -25 0
-28 -26 0
-28 -27 0
-28 -29 0
-28 -30 0
-29 -21 0
-29 -22 0
-29 -23 0
-29 -24 0
-29 -25 0
-29 -26 0
-29 -27 0
-29 -28 0
-29 -30 0
-30 -21 0
-30 -22 0
-30 -23 0
-30 -24 0
-30 -25 0
-30 -26 0
-30 -27 0
-30 -28 0
-30 -29 0
-31 -32 0
-31 -33 0
-31 -34 0
-31 -35 0
-31 -36 0
-31 -37 0
-31 -38 0
-31 -39 0
-31 -40 0
-32 -31 0
-32 -33 0
-32 -34 0
-32 -35 0
-32 -36 0
-32 -37 0
-32 -38 0
-32 -39 0
-32 -40 0
-33 -31 0
-33 -32 0
-33 -34 0
-33 -35 0
-33 -36 0
-33 -37 0
-33 -38 0
-33 -39 0
-33 -40 0
-34 -31 0
-34 -32 0
-34 -33 0
-34 -35 0
-34 -36 0
-34 -37 0
-34 -38 0
-34 -39 0
-34 -40 0
-35 -31 0
-35 -32 0
-35 -33 0
-35 -34 0
-35 -36 0
-35 -37 0
-35 -38 0
-35 -39 0
-35 -40 0
-36 -31 0
-36 -32 0
-36 -33 0
-36 -34 0
-36 -35 0
-36 -37 0
-36 -38 0
-36 -39 0
-36 -40 0
-37 -31 0
-37 -32 0
-37 -33 0
-37 -34 0
-37 -35 0
-37 -36 0
-37 -38 0
-37 -39 0
-37 -40 0
-38 -31 0
-38 -32 0
-38 -33 0
-38 -34 0
-38 -35 0
-38 -36 0
-38 -37 0
-38 -39 0
-38 -40 0
-39 -31 0
-39 -32 0
-39 -33 0
-39 -34 0
-39 -35 0
-39 -36 0
-39 -37 0
-39 -38 0
-39 -40 0
-40 -31 0
-40 -32 0
-40 -33 0
-40 -34 0
-40 -35 0
-40 -36 0
-40 -37 0
-40 -38 0
-40 -39 0
-41 -42 0
-41 -43 0
-41 -44 0
-41 -45 0
-41 -46 0
-41 -47 0
-41 -48 0
-41 -49 0
-41 -50 0
-42 -41 0
-42 -43 0
-42 -44 0
-42 -45 0
-42 -46 0
-42 -47 0
-42 -48 0
-42 -49 0
-42 -50 0
-43 -41 0
-43 -42 0
-43 -44 0
-43 -45 0
-43 -46 0
-43 -47 0
-43 -48 0
-43 -49 0
-43 -50 0
-44 -41 0
-44 -42 0
-44 -43 0
-44 -45 0
-44 -46 0
-44 -47 0
-44 -48 0
-44 -49 0
-44 -50 0
-45 -41 0
-45 -42 0
-45 -43 0
-45 -44 0
-45 -46 0
-45 -47 0
-45 -48 0
-45 -49 0
-45 -50 0
-46 -41 0
-46 -42 0
-46 -43 0
-46 -44 0
-46 -45 0
-46 -47 0
-46 -48 0
-46 -49 0
-46 -50 0
-47 -41 0
-47 -42 0
-47 -43 0
-47 -44 0
-47 -45 0
-47 -46 0
-47 -48 0
-47 -49 0
-47 -50 0
-48 -41 0
-48 -42 0
-48 -43 0
-48 -44 0
-48 -45 0
-48 -46 0
-48 -47 0
-48 -49 0
-48 -50 0
-49 -41 0
-49 -42 0
-49 -43 0
-49 -44 0
-49 -45 0
-49 -46 0
-49 -47 0
-49 -48 0
-49 -50 0
-50 -41 0
-50 -42 0
-50 -43 0
-50 -44 0
-50 -45 0
-50 -46 0
-50 -47 0
-50 -48 0
-50 -49 0
-51 -52 0
-51 -53 0
-51 -54 0
-51 -55 0
-51 -56 0
-51 -57 0
-51 -58 0
-51 -59 0
-51 -60 0
-52 -51 0
-52 -53 0
-52 -54 0
-52 -55 0
-52 -56 0
-52 -57 0
-52 -58 0
-52 -59 0
-52 -60 0
-53 -51 0
-53 -52 0
-53 -54 0
-53 -55 0
-53 -56 0
-53 -57 0
-53 -58 0
-53 -59 0
-53 -60 0
-54 -51 0
-54 -52 0
-54 -53 0
-54 -55 0
-54 -56 0
-54 -57 0
-54 -58 0
-54 -59 0
-54 -60 0
-55 -51 0
-55 -52 0
-55 -53 0
-55 -54 0
-55 -56 0
-55 -57 0
-55 -58 0
-55 -59 0
-55 -60 0
-56 -51 0
-56 -52 0
-56 -53 0
-56 -54 0
-56 -55 0
-56 -57 0
-56 -58 0
-56 -59 0
-56 -60 0
-57 -51 0
-57 -52 0
-57 -53 0
-57 -54 0
-57 -55 0
-57 -56 0
-57 -58 0
-57 -59 0
-57 -60 0
-58 -51 0
-58 -52 0
-58 -53 0
-58 -54 0
-58 -55 0
-58 -56 0
-58 -57 0
-58 -59 0
-58 -60 0
-59 -51 0
-59 -52 0
-59 -53 0
-59 -54 0
-59 -55 0
-59 -56 0
-59 -57 0
-59 -58 0
-59 -60 0
-60 -51 0
-60 -52 0
-60 -53 0
-60 -54 0
-60 -55 0
-60 -56 0
-60 -57 0
-60 -58 0
-60 -59 0
-61 -62 0
-61 -63 0
-61 -64 0
-61 -65 0
-61 -66 0
-61 -67 0
-61 -68 0
-61 -69 0
-61 -70 0
-62 -61 0
-62 -63 0
-62 -64 0
-62 -65 0
-62 -66 0
-62 -67 0
-62 -68 0
-62 -69 0
-62 -70 0
-63 -61 0
-63 -62 0
-63 -64 0
-63 -65 0
-63 -66 0
-63 -67 0
-63 -68 0
-63 -69 0
-63 -70 0
-64 -61 0
-64 -62 0
-64 -63 0
-64 -65 0
-64 -66 0
-64 -67 0
-64 -68 0
-64 -69 0
-64 -70 0
-65 -61 0
-65 -62 0
-65 -63 0
-65 -64 0
-65 -66 0
-65 -67 0
-65 -68 0
-65 -69 0
-65 -70 0
-66 -61 0
-66 -62 0
-66 -63 0
-66 -64 0
-66 -65 0
-66 -67 0
-66 -68 0
-66 -69 0
-66 -70 0
-67 -61 0
-67 -62 0
-67 -63 0
-67 -64 0
-67 -65 0
-67 -66 0
-67 -68 0
-67 -69 0
-67 -70 0
-68 -61 0
-68 -62 0
-68 -63 0
-68 -64 0
-68 -65 0
-68 -66 0
-68 -67 0
-68 -69 0
-68 -70 0
-69 -61 0
-69 -62 0
-69 -63 0
-69 -64 0
-69 -65 0
-69 -66 0
-69 -67 0
-69 -68 0
-69 -70 0
-70 -61 0
-70 -62 0
-70 -63 0
-70 -64 0
-70 -65 0
-70 -66 0
-70 -67 0
-70 -68 0
-70 -69 0
-71 -72 0
-71 -73 0
-71 -74 0
-71 -75 0
-71 -76 0
-71 -77 0
-71 -78 0
-71 -79 0
-71 -80 0
-72 -71 0
-72 -73 0
-72 -74 0
-72 -75 0
-72 -76 0
-72 -77 0
-72 -78 0
-72 -79 0
-72 -80 0
-73 -71 0
-73 -72 0
-73 -74 0
-73 -75 0
-73 -76 0
-73 -77 0
-73 -78 0
-73 -79 0
-73 -80 0
-74 -71 0
-74 -72 0
-74 -73 0
-74 -75 0
-74 -76 0
-74 -77 0
-74 -78 0
-74 -79 0
-74 -80 0
-75 -71 0
-75 -72 0
-75 -73 0
-75 -74 0
-75 -76 0
-75 -77 0
-75 -78 0
-75 -79 0
-75 -80 0
-76 -71 0
-76 -72 0
-76 -73 0
-76 -74 0
-76 -75 0
-76 -77 0
-76 -78 0
-76 -79 0
-76 -80 0
-77 -71 0
-77 -72 0
-77 -73 0
-77 -74 0
-77 -75 0
-77 -76 0
-77 -78 0
-77 -79 0
-77 -80 0
-78 -71 0
-78 -72 0
-78 -73 0
-78 -74 0
-78 -75 0
-78 -76 0
-78 -77 0
-78 -79 0
-78 -80 0
-79 -71 0
-79 -72 0
-79 -73 0
-79 -74 0
-79 -75 0
-79 -76 0
-79 -77 0
-79 -78 0
-79 -80 0
-80 -71 0
-80 -72 0
-80 -73 0
-80 -74 0
-80 -75 0
-80 -76 0
-80 -77 0
-80 -78 0
-80 -79 0
71 72 73 74 75 76 77 78 79 80 0
-11 1 0
-11 6 0
-12 2 0
-12 7 0
-13 2 0
-13 8 0
-14 3 0
-14 6 0
-15 3 0
-15 7 0
-16 3 0
-16 9 0
-17 4 0
-17 8 0
-18 4 0
-18 9 0
-19 5 0
-19 8 0
-20 5 0
-20 10 0
-21 1 0
-21 6 0
-22 2 0
-22 7 0
-23 2 0
-23 8 0
-24 3 0
-24 6 0
-25 3 0
-25 7 0
-26 3 0
-26 9 0
-27 4 0
-27 8 0
-28 4 0
-28 9 0
-29 5 0
-29 8 0
-30 5 0
-30 10 0
-31 1 0
-31 6 0
-32 2 0
-32 7 0
-33 2 0
-33 8 0
-34 3 0
-34 6 0
-35 3 0
-35 7 0
-36 3 0
-36 9 0
-37 4 0
-37 8 0
-38 4 0
-38 9 0
-39 5 0
-39 8 0
-40 5 0
-40 10 0
-41 1 0
-41 6 0
-42 2 0
-42 7 0
-43 2 0
-43 8 0
-44 3 0
-44 6 0
-45 3 0
-45 7 0
-46 3 0
-46 9 0
-47 4 0
-47 8 0
-48 4 0
-48 9 0
-49 5 0
-49 8 0
-50 5 0
-50 10 0
-51 1 0
-51 6 0
-52 2 0
-52 7 0
-53 2 0
-53 8 0
-54 3 0
-54 6 0
-55 3 0
-55 7 0
-56 3 0
-56 9 0
-57 4 0
-57 8 0
-58 4 0
-58 9 0
-59 5 0
-59 8 0
-60 5 0
-60 10 0
-61 1 0
-61 6 0
-62 2 0
-62 7 0
-63 2 0
-63 8 0
-64 3 0
-64 6 0
-65 3 0
-65 7 0
-66 3 0
-66 9 0
-67 4 0
-67 8 0
-68 4 0
-68 9 0
-69 5 0
-69 8 0
-70 5 0
-70 10 0
-71 1 0
-71 6 0
-72 2 0
-72 7 0
-73 2 0
-73 8 0
-74 3 0
-74 6 0
-75 3 0
-75 7 0
-76 3 0
-76 9 0
-77 4 0
-77 8 0
-78 4 0
-78 9 0
-79 5 0
-79 8 0
-80 5 0
-80 10 0
-30 11 14 0 
-30 12 15 0 
-30 13 17 19 0 
-30 11 14 0 
-30 12 15 0 
-30 16 18 0 
-30 13 17 19 0 
-30 16 18 0 
-30 13 17 19 0 
-30 20 0 
-21 20 0 
-24 20 20 20 0 
-22 20 20 0 
-25 20 20 20 0 
-23 20 20 0 
-27 20 20 0 
-29 20 20 0 
-26 20 20 20 0 
-28 20 20 0 
-30 20 20 0 
-40 21 24 0 
-40 22 25 0 
-40 23 27 29 0 
-40 21 24 0 
-40 22 25 0 
-40 26 28 0 
-40 23 27 29 0 
-40 26 28 0 
-40 23 27 29 0 
-40 30 0 
-31 30 0 
-34 30 30 30 0 
-32 30 30 0 
-35 30 30 30 0 
-33 30 30 0 
-37 30 30 0 
-39 30 30 0 
-36 30 30 30 0 
-38 30 30 0 
-40 30 30 0 
-50 31 34 0 
-50 32 35 0 
-50 33 37 39 0 
-50 31 34 0 
-50 32 35 0 
-50 36 38 0 
-50 33 37 39 0 
-50 36 38 0 
-50 33 37 39 0 
-50 40 0 
-41 40 0 
-44 40 40 40 0 
-42 40 40 0 
-45 40 40 40 0 
-43 40 40 0 
-47 40 40 0 
-49 40 40 0 
-46 40 40 40 0 
-48 40 40 0 
-50 40 40 0 
-60 41 44 0 
-60 42 45 0 
-60 43 47 49 0 
-60 41 44 0 
-60 42 45 0 
-60 46 48 0 
-60 43 47 49 0 
-60 46 48 0 
-60 43 47 49 0 
-60 50 0 
-51 50 0 
-54 50 50 50 0 
-52 50 50 0 
-55 50 50 50 0 
-53 50 50 0 
-57 50 50 0 
-59 50 50 0 
-56 50 50 50 0 
-58 50 50 0 
-60 50 50 0 
-70 51 54 0 
-70 52 55 0 
-70 53 57 59 0 
-70 51 54 0 
-70 52 55 0 
-70 56 58 0 
-70 53 57 59 0 
-70 56 58 0 
-70 53 57 59 0 
-70 60 0 
-61 60 0 
-64 60 60 60 0 
-62 60 60 0 
-65 60 60 60 0 
-63 60 60 0 
-67 60 60 0 
-69 60 60 0 
-66 60 60 60 0 
-68 60 60 0 
-70 60 60 0 
-80 61 64 0 
-80 62 65 0 
-80 63 67 69 0 
-80 61 64 0 
-80 62 65 0 
-80 66 68 0 
-80 63 67 69 0 
-80 66 68 0 
-80 63 67 69 0 
-80 70 0 
-71 70 0 
-74 70 70 70 0 
-72 70 70 0 
-75 70 70 70 0 
-73 70 70 0 
-77 70 70 0 
-79 70 70 0 
-76 70 70 70 0 
-78 70 70 0 
-80 70 70 0 
-1 11 21 31 41 51 61 71 0 
-2 12 13 22 23 32 33 42 43 52 53 62 63 72 73 0 
-3 14 15 16 24 25 26 34 35 36 44 45 46 54 55 56 64 65 66 74 75 76 0 
-4 17 18 27 28 37 38 47 48 57 58 67 68 77 78 0 
-5 19 20 29 30 39 40 49 50 59 60 69 70 79 80 0 
-6 20 20 30 30 40 40 50 50 60 60 70 70 80 80 0 
-7 20 20 30 30 40 40 50 50 60 60 70 70 80 80 0 
-8 20 20 20 30 30 30 40 40 40 50 50 50 60 60 60 70 70 70 80 80 80 0 
-9 20 20 30 30 40 40 50 50 60 60 70 70 80 80 0 
-10 20 30 40 50 60 70 80 0 
